DIMACS2
20 243 89 263 199 239 16 88 196 279 282 105 280 300 40 226 274 54 137 213 288
p edge 320 1467
e 0 43 1.0
e 1 290 1.0
e 2 275 1.0
e 2 0 1.0
e 2 256 5.0
e 2 135 5.0
e 2 250 3.0
e 2 26 1.0
e 2 29 5.0
e 3 316 1.0
e 4 274 21.0
e 4 317 17.0
e 4 126 12.0
e 4 140 10.0
e 4 241 19.0
e 4 6 8.0
e 4 242 2.0
e 4 81 3.0
e 4 194 11.0
e 4 303 23.0
e 4 91 11.0
e 4 199 11.0
e 4 236 11.0
e 4 38 3.0
e 4 206 24.0
e 4 248 11.0
e 4 79 1.0
e 4 143 24.0
e 4 146 7.0
e 4 230 24.0
e 4 63 9.0
e 4 171 19.0
e 4 41 1.0
e 4 93 21.0
e 5 93 1.0
e 5 170 2.0
e 5 88 49.0
e 6 288 45.0
e 6 301 6.0
e 6 221 10.0
e 6 144 4.0
e 6 260 11.0
e 6 7 12.0
e 6 284 13.0
e 6 228 10.0
e 6 242 4.0
e 6 126 9.0
e 6 300 2.0
e 7 204 1.0
e 8 106 1.0
e 8 166 1.0
e 8 38 3.0
e 8 244 2.0
e 9 130 1.0
e 9 119 1.0
e 10 60 1.0
e 10 0 1.0
e 11 308 1.0
e 11 271 1.0
e 12 61 1.0
e 12 313 1.0
e 13 153 1.0
e 13 217 1.0
e 13 225 1.0
e 13 62 2.0
e 14 77 3.0
e 15 116 2.0
e 16 21 29.0
e 16 246 19.0
e 16 67 8.0
e 16 280 44.0
e 16 174 47.0
e 16 187 25.0
e 16 57 12.0
e 16 30 37.0
e 16 62 46.0
e 16 197 5.0
e 16 81 28.0
e 16 72 40.0
e 16 191 9.0
e 16 5 8.0
e 16 135 15.0
e 16 142 11.0
e 16 273 12.0
e 16 59 37.0
e 16 182 3.0
e 16 31 28.0
e 16 107 17.0
e 16 307 38.0
e 16 65 24.0
e 16 73 33.0
e 16 175 27.0
e 16 84 24.0
e 16 285 3.0
e 16 221 39.0
e 16 231 37.0
e 16 136 43.0
e 16 29 2.0
e 16 167 25.0
e 16 282 14.0
e 16 170 30.0
e 16 261 44.0
e 16 227 36.0
e 16 279 1.0
e 16 190 17.0
e 16 145 36.0
e 16 252 34.0
e 16 86 22.0
e 16 185 34.0
e 16 137 48.0
e 16 44 22.0
e 16 302 21.0
e 16 308 29.0
e 16 6 1.0
e 16 127 11.0
e 17 43 1.0
e 18 105 25.0
e 18 150 8.0
e 18 174 11.0
e 18 109 8.0
e 18 48 11.0
e 18 290 4.0
e 18 277 4.0
e 18 245 4.0
e 18 52 2.0
e 18 248 4.0
e 18 270 8.0
e 18 64 9.0
e 18 71 2.0
e 19 96 1.0
e 20 262 1.0
e 21 205 1.0
e 21 142 2.0
e 21 22 2.0
e 22 191 2.0
e 23 181 1.0
e 23 185 2.0
e 24 220 1.0
e 25 51 2.0
e 25 59 1.0
e 26 272 2.0
e 27 158 1.0
e 28 167 1.0
e 28 16 29.0
e 28 12 2.0
e 28 230 1.0
e 29 39 1.0
e 30 173 1.0
e 30 14 2.0
e 30 182 6.0
e 30 122 1.0
e 30 51 5.0
e 31 175 1.0
e 32 124 1.0
e 33 126 1.0
e 33 298 1.0
e 34 137 35.0
e 34 10 1.0
e 34 182 1.0
e 35 62 2.0
e 36 24 1.0
e 37 259 1.0
e 37 6 2.0
e 38 3 1.0
e 39 15 1.0
e 39 315 1.0
e 40 203 20.0
e 40 227 25.0
e 40 39 24.0
e 40 91 46.0
e 40 282 40.0
e 40 28 31.0
e 40 255 3.0
e 40 123 12.0
e 40 10 9.0
e 40 134 20.0
e 40 270 21.0
e 40 182 39.0
e 40 96 8.0
e 40 62 9.0
e 40 166 49.0
e 40 247 30.0
e 40 299 11.0
e 40 310 36.0
e 40 158 42.0
e 40 170 44.0
e 40 87 49.0
e 40 209 6.0
e 40 190 39.0
e 40 171 1.0
e 40 46 8.0
e 40 172 41.0
e 40 225 35.0
e 40 284 42.0
e 40 187 44.0
e 40 277 20.0
e 40 167 17.0
e 40 229 45.0
e 40 9 1.0
e 40 120 11.0
e 40 94 27.0
e 40 99 14.0
e 40 169 34.0
e 40 244 19.0
e 40 70 9.0
e 40 32 5.0
e 40 125 2.0
e 40 122 12.0
e 40 258 16.0
e 40 315 14.0
e 40 41 23.0
e 40 159 41.0
e 41 224 1.0
e 42 14 1.0
e 42 62 2.0
e 43 145 1.0
e 44 84 2.0
e 44 102 1.0
e 44 295 1.0
e 45 71 2.0
e 46 262 2.0
e 47 178 1.0
e 48 189 1.0
e 49 171 2.0
e 49 265 1.0
e 49 12 1.0
e 49 145 2.0
e 50 230 1.0
e 51 243 36.0
e 52 76 1.0
e 53 91 1.0
e 54 93 32.0
e 54 226 25.0
e 54 6 28.0
e 54 95 5.0
e 54 290 38.0
e 54 317 18.0
e 54 8 44.0
e 54 106 32.0
e 54 59 42.0
e 54 231 2.0
e 54 149 10.0
e 54 283 15.0
e 54 15 14.0
e 54 286 35.0
e 54 173 35.0
e 54 200 25.0
e 54 171 48.0
e 54 294 49.0
e 54 229 34.0
e 54 256 37.0
e 54 262 24.0
e 54 253 5.0
e 54 215 49.0
e 54 32 24.0
e 54 247 23.0
e 54 117 1.0
e 54 204 18.0
e 54 274 11.0
e 54 157 29.0
e 54 249 11.0
e 54 96 28.0
e 54 137 48.0
e 54 101 49.0
e 54 169 10.0
e 54 160 31.0
e 54 183 22.0
e 54 136 21.0
e 54 39 4.0
e 54 186 18.0
e 54 99 30.0
e 54 124 11.0
e 54 298 27.0
e 54 34 37.0
e 54 265 23.0
e 54 220 33.0
e 54 109 37.0
e 54 219 18.0
e 54 245 46.0
e 55 204 1.0
e 55 246 1.0
e 56 188 2.0
e 56 6 10.0
e 56 157 1.0
e 57 127 1.0
e 58 54 35.0
e 58 193 1.0
e 58 173 2.0
e 59 289 1.0
e 60 35 2.0
e 60 29 2.0
e 60 28 1.0
e 61 159 2.0
e 61 15 1.0
e 62 110 1.0
e 63 314 1.0
e 64 196 37.0
e 64 147 5.0
e 64 126 4.0
e 64 315 1.0
e 64 227 1.0
e 64 292 4.0
e 65 43 1.0
e 66 265 1.0
e 67 35 3.0
e 68 287 1.0
e 69 273 1.0
e 70 68 1.0
e 71 297 1.0
e 72 94 1.0
e 73 57 1.0
e 73 283 1.0
e 73 54 16.0
e 74 34 2.0
e 75 200 2.0
e 75 149 1.0
e 75 107 1.0
e 76 292 1.0
e 77 222 4.0
e 77 50 4.0
e 77 175 5.0
e 77 294 2.0
e 77 213 27.0
e 78 74 1.0
e 78 58 1.0
e 79 308 1.0
e 80 252 2.0
e 80 222 2.0
e 80 21 1.0
e 81 180 5.0
e 81 108 3.0
e 81 238 6.0
e 81 277 1.0
e 82 98 1.0
e 83 80 2.0
e 83 282 14.0
e 84 139 1.0
e 85 307 1.0
e 85 96 1.0
e 85 206 1.0
e 85 223 2.0
e 86 291 2.0
e 87 151 1.0
e 88 77 12.0
e 88 293 1.0
e 88 40 40.0
e 88 228 44.0
e 88 131 10.0
e 88 181 16.0
e 88 20 26.0
e 88 58 6.0
e 88 158 5.0
e 88 100 34.0
e 88 46 16.0
e 88 133 22.0
e 88 106 16.0
e 88 102 20.0
e 88 1 9.0
e 88 310 42.0
e 88 177 6.0
e 88 137 28.0
e 88 179 13.0
e 88 305 17.0
e 88 33 36.0
e 88 146 42.0
e 88 167 10.0
e 88 168 35.0
e 88 87 28.0
e 88 309 35.0
e 88 138 14.0
e 88 224 5.0
e 88 283 19.0
e 88 3 30.0
e 88 152 38.0
e 88 204 13.0
e 88 21 34.0
e 88 182 22.0
e 88 241 21.0
e 88 160 8.0
e 88 215 9.0
e 88 9 46.0
e 88 91 23.0
e 88 207 9.0
e 88 41 17.0
e 88 72 34.0
e 88 287 38.0
e 88 226 3.0
e 88 288 14.0
e 88 175 40.0
e 88 247 31.0
e 88 169 32.0
e 89 205 23.0
e 89 78 48.0
e 89 231 3.0
e 89 276 42.0
e 89 94 12.0
e 89 236 25.0
e 89 110 7.0
e 89 307 33.0
e 89 271 14.0
e 89 259 38.0
e 89 27 8.0
e 89 255 16.0
e 89 4 21.0
e 89 62 41.0
e 89 66 45.0
e 89 171 6.0
e 89 36 40.0
e 89 286 19.0
e 89 127 25.0
e 89 187 13.0
e 89 7 38.0
e 89 226 47.0
e 89 16 6.0
e 89 65 18.0
e 89 241 33.0
e 89 130 44.0
e 89 82 41.0
e 89 189 7.0
e 89 115 41.0
e 89 260 14.0
e 89 148 7.0
e 89 146 16.0
e 89 60 15.0
e 89 42 12.0
e 89 113 45.0
e 89 61 22.0
e 89 151 15.0
e 89 242 28.0
e 89 102 46.0
e 89 221 47.0
e 89 256 27.0
e 89 128 4.0
e 89 96 40.0
e 89 284 15.0
e 89 203 41.0
e 89 318 33.0
e 89 45 35.0
e 89 132 12.0
e 90 177 1.0
e 90 149 1.0
e 90 63 1.0
e 91 277 1.0
e 92 55 2.0
e 92 180 1.0
e 93 191 1.0
e 94 241 2.0
e 95 229 2.0
e 95 148 2.0
e 95 206 2.0
e 96 14 1.0
e 97 136 1.0
e 98 101 2.0
e 99 314 1.0
e 100 84 1.0
e 100 43 1.0
e 100 135 1.0
e 101 136 1.0
e 101 242 1.0
e 102 3 1.0
e 103 87 1.0
e 104 306 1.0
e 104 299 1.0
e 104 189 2.0
e 105 284 11.0
e 105 261 34.0
e 105 304 2.0
e 105 207 48.0
e 105 299 32.0
e 105 206 19.0
e 105 255 18.0
e 105 191 24.0
e 105 62 31.0
e 105 307 38.0
e 105 137 20.0
e 105 202 14.0
e 105 252 14.0
e 105 145 30.0
e 105 4 6.0
e 105 232 36.0
e 105 32 37.0
e 105 243 36.0
e 105 276 24.0
e 105 209 6.0
e 105 269 18.0
e 105 211 32.0
e 105 150 44.0
e 105 141 48.0
e 105 110 37.0
e 105 42 15.0
e 105 312 38.0
e 105 297 32.0
e 105 235 17.0
e 105 152 37.0
e 105 241 6.0
e 105 121 7.0
e 105 215 3.0
e 105 166 18.0
e 105 124 6.0
e 105 204 9.0
e 105 54 17.0
e 105 69 33.0
e 105 248 8.0
e 105 92 49.0
e 105 66 37.0
e 105 106 5.0
e 105 294 13.0
e 105 231 27.0
e 105 194 35.0
e 105 108 12.0
e 105 167 16.0
e 105 305 18.0
e 106 268 1.0
e 107 179 1.0
e 107 153 1.0
e 108 218 1.0
e 109 26 1.0
e 110 35 2.0
e 111 288 7.0
e 111 294 1.0
e 111 295 1.0
e 111 9 3.0
e 112 198 1.0
e 112 166 1.0
e 113 186 3.0
e 113 10 2.0
e 114 109 1.0
e 115 243 28.0
e 115 210 5.0
e 115 233 6.0
e 115 39 1.0
e 115 77 6.0
e 115 219 8.0
e 115 158 11.0
e 115 203 2.0
e 115 196 49.0
e 115 174 9.0
e 115 236 11.0
e 115 215 8.0
e 116 195 1.0
e 116 128 1.0
e 116 30 5.0
e 117 17 1.0
e 118 231 2.0
e 118 249 1.0
e 119 81 3.0
e 120 74 1.0
e 121 82 1.0
e 121 29 1.0
e 121 65 2.0
e 122 306 1.0
e 122 118 2.0
e 123 259 1.0
e 124 162 1.0
e 125 126 1.0
e 126 52 1.0
e 127 156 2.0
e 128 51 1.0
e 129 175 2.0
e 130 260 2.0
e 131 201 1.0
e 132 171 1.0
e 133 303 8.0
e 133 217 1.0
e 133 200 2.0
e 134 129 1.0
e 135 295 1.0
e 136 41 1.0
e 137 24 8.0
e 137 240 5.0
e 137 198 19.0
e 137 64 22.0
e 137 241 41.0
e 137 271 5.0
e 137 109 6.0
e 137 201 47.0
e 137 47 16.0
e 137 188 14.0
e 137 199 23.0
e 137 312 23.0
e 137 178 29.0
e 137 1 22.0
e 137 82 29.0
e 137 119 28.0
e 137 106 28.0
e 137 239 49.0
e 137 121 1.0
e 137 237 19.0
e 137 53 3.0
e 137 299 17.0
e 137 52 35.0
e 137 301 25.0
e 137 286 46.0
e 137 224 39.0
e 137 272 17.0
e 137 4 7.0
e 137 140 2.0
e 137 99 24.0
e 137 253 33.0
e 137 141 25.0
e 137 298 44.0
e 137 305 41.0
e 137 153 37.0
e 137 254 20.0
e 137 55 19.0
e 137 218 21.0
e 137 177 15.0
e 137 25 34.0
e 137 275 11.0
e 137 202 16.0
e 137 6 3.0
e 138 316 1.0
e 139 47 1.0
e 140 195 1.0
e 141 232 1.0
e 142 270 1.0
e 143 50 1.0
e 144 278 1.0
e 145 211 1.0
e 146 308 1.0
e 147 225 1.0
e 148 170 1.0
e 149 36 1.0
e 150 254 1.0
e 151 184 1.0
e 152 151 1.0
e 153 222 1.0
e 154 82 1.0
e 155 252 1.0
e 156 309 3.0
e 157 309 3.0
e 157 133 1.0
e 158 22 2.0
e 159 71 1.0
e 160 39 1.0
e 161 74 1.0
e 161 35 1.0
e 162 201 2.0
e 163 249 1.0
e 163 94 1.0
e 163 237 1.0
e 163 215 1.0
e 164 91 1.0
e 164 83 1.0
e 165 221 1.0
e 165 291 1.0
e 166 194 2.0
e 167 227 1.0
e 168 255 1.0
e 168 17 1.0
e 168 104 3.0
e 169 144 1.0
e 170 53 1.0
e 171 129 1.0
e 172 58 2.0
e 172 90 4.0
e 172 84 2.0
e 172 195 1.0
e 172 259 4.0
e 172 94 2.0
e 173 201 2.0
e 174 4 21.0
e 175 231 2.0
e 176 7 3.0
e 176 51 1.0
e 176 43 2.0
e 176 56 2.0
e 177 1 1.0
e 178 275 1.0
e 179 14 1.0
e 179 64 3.0
e 180 196 4.0
e 180 14 1.0
e 181 128 1.0
e 182 131 1.0
e 183 155 1.0
e 184 166 1.0
e 185 222 2.0
e 186 273 1.0
e 187 211 2.0
e 188 67 1.0
e 189 238 1.0
e 190 196 46.0
e 190 105 40.0
e 190 101 8.0
e 190 158 2.0
e 190 164 9.0
e 190 183 7.0
e 190 80 7.0
e 190 260 11.0
e 190 132 7.0
e 190 249 10.0
e 190 102 11.0
e 191 160 1.0
e 192 162 1.0
e 192 185 2.0
e 193 196 36.0
e 193 97 2.0
e 194 272 1.0
e 195 93 2.0
e 196 153 30.0
e 196 255 29.0
e 196 120 13.0
e 196 250 28.0
e 196 194 27.0
e 196 39 10.0
e 196 65 8.0
e 196 128 32.0
e 196 185 43.0
e 196 192 37.0
e 196 260 45.0
e 196 226 19.0
e 196 80 10.0
e 196 51 27.0
e 196 126 29.0
e 196 237 38.0
e 196 81 39.0
e 196 302 40.0
e 196 105 33.0
e 196 195 8.0
e 196 294 17.0
e 196 125 7.0
e 196 290 9.0
e 196 262 45.0
e 196 247 9.0
e 196 233 8.0
e 196 77 12.0
e 196 28 5.0
e 196 10 46.0
e 196 119 1.0
e 196 272 8.0
e 196 241 28.0
e 196 71 30.0
e 196 106 12.0
e 196 34 20.0
e 196 60 35.0
e 196 103 41.0
e 196 242 20.0
e 196 132 30.0
e 196 127 44.0
e 196 137 28.0
e 196 182 2.0
e 196 33 1.0
e 196 169 40.0
e 197 251 1.0
e 198 19 1.0
e 199 25 5.0
e 199 299 44.0
e 199 61 15.0
e 199 158 20.0
e 199 235 27.0
e 199 308 36.0
e 199 189 12.0
e 199 15 35.0
e 199 221 10.0
e 199 301 30.0
e 199 264 18.0
e 199 118 20.0
e 199 10 23.0
e 199 104 36.0
e 199 286 37.0
e 199 62 22.0
e 199 267 37.0
e 199 224 9.0
e 199 222 42.0
e 199 293 44.0
e 199 294 30.0
e 199 103 2.0
e 199 287 35.0
e 199 57 34.0
e 199 17 19.0
e 199 139 4.0
e 199 5 5.0
e 199 295 43.0
e 199 47 15.0
e 199 119 31.0
e 199 283 32.0
e 199 212 15.0
e 199 84 35.0
e 199 219 16.0
e 199 236 12.0
e 199 300 27.0
e 199 228 23.0
e 199 151 7.0
e 199 159 40.0
e 199 273 4.0
e 199 44 26.0
e 199 87 41.0
e 199 142 8.0
e 199 315 48.0
e 200 191 1.0
e 201 199 21.0
e 202 188 1.0
e 203 69 2.0
e 204 312 1.0
e 205 239 10.0
e 206 45 2.0
e 207 310 2.0
e 208 315 3.0
e 208 240 1.0
e 208 93 2.0
e 209 42 2.0
e 210 178 1.0
e 211 162 1.0
e 212 185 2.0
e 213 40 8.0
e 213 127 20.0
e 213 197 12.0
e 213 263 2.0
e 213 303 49.0
e 213 318 44.0
e 213 201 21.0
e 213 57 26.0
e 213 44 37.0
e 213 95 9.0
e 213 205 2.0
e 213 32 20.0
e 213 165 13.0
e 213 120 10.0
e 213 244 8.0
e 213 293 25.0
e 213 194 8.0
e 213 28 11.0
e 213 70 31.0
e 213 128 8.0
e 213 68 45.0
e 213 164 21.0
e 213 190 2.0
e 213 252 41.0
e 213 126 49.0
e 213 7 44.0
e 213 133 44.0
e 213 306 10.0
e 213 41 11.0
e 213 37 47.0
e 213 207 13.0
e 213 160 33.0
e 213 169 20.0
e 213 274 49.0
e 213 242 11.0
e 213 59 29.0
e 213 229 37.0
e 213 150 5.0
e 213 310 17.0
e 213 101 46.0
e 213 116 48.0
e 213 290 41.0
e 213 137 37.0
e 213 166 27.0
e 213 66 19.0
e 213 237 42.0
e 213 109 26.0
e 213 63 32.0
e 214 239 35.0
e 214 198 2.0
e 214 253 2.0
e 214 92 1.0
e 215 91 1.0
e 216 291 1.0
e 216 93 2.0
e 217 295 1.0
e 218 6 2.0
e 219 220 1.0
e 220 148 1.0
e 221 106 5.0
e 222 259 1.0
e 223 234 1.0
e 224 273 1.0
e 225 312 10.0
e 225 221 4.0
e 225 116 1.0
e 225 80 1.0
e 225 30 4.0
e 225 278 11.0
e 225 88 4.0
e 225 159 6.0
e 225 160 7.0
e 226 208 22.0
e 226 258 44.0
e 226 243 49.0
e 226 87 33.0
e 226 280 48.0
e 226 300 48.0
e 226 17 38.0
e 226 100 32.0
e 226 78 31.0
e 226 291 5.0
e 226 43 33.0
e 226 10 17.0
e 226 153 4.0
e 226 141 46.0
e 226 39 44.0
e 226 73 36.0
e 226 254 23.0
e 226 34 32.0
e 226 162 43.0
e 226 91 2.0
e 226 188 28.0
e 226 245 45.0
e 226 214 46.0
e 226 246 24.0
e 226 106 2.0
e 226 92 2.0
e 226 158 27.0
e 226 270 42.0
e 226 169 45.0
e 226 318 40.0
e 226 187 12.0
e 226 98 16.0
e 226 199 31.0
e 226 28 47.0
e 226 86 28.0
e 226 132 14.0
e 226 183 10.0
e 226 11 49.0
e 226 148 3.0
e 226 268 5.0
e 226 244 38.0
e 226 255 43.0
e 226 190 13.0
e 226 109 36.0
e 227 206 2.0
e 228 146 1.0
e 229 59 1.0
e 230 265 1.0
e 231 219 1.0
e 232 249 2.0
e 232 163 2.0
e 233 61 1.0
e 233 229 2.0
e 234 55 1.0
e 235 114 1.0
e 236 226 21.0
e 236 297 11.0
e 236 72 1.0
e 236 160 8.0
e 236 54 21.0
e 236 148 1.0
e 236 131 10.0
e 236 48 8.0
e 237 290 1.0
e 238 27 1.0
e 239 30 38.0
e 239 143 32.0
e 239 221 2.0
e 239 244 22.0
e 239 127 40.0
e 239 38 21.0
e 239 253 2.0
e 239 173 36.0
e 239 155 3.0
e 239 211 2.0
e 239 9 6.0
e 239 210 27.0
e 239 162 16.0
e 239 85 29.0
e 239 295 19.0
e 239 264 34.0
e 239 151 13.0
e 239 306 20.0
e 239 213 48.0
e 239 89 30.0
e 239 147 4.0
e 239 272 11.0
e 239 119 23.0
e 239 67 20.0
e 239 37 46.0
e 239 215 28.0
e 239 276 49.0
e 239 1 23.0
e 239 45 4.0
e 239 171 16.0
e 239 277 46.0
e 239 176 1.0
e 239 318 12.0
e 239 90 8.0
e 239 166 4.0
e 239 32 24.0
e 239 78 49.0
e 239 283 36.0
e 239 100 48.0
e 239 296 34.0
e 239 307 23.0
e 239 139 16.0
e 239 169 42.0
e 239 161 49.0
e 239 120 11.0
e 240 68 1.0
e 241 20 1.0
e 242 151 1.0
e 243 113 24.0
e 243 311 13.0
e 243 45 35.0
e 243 169 39.0
e 243 93 45.0
e 243 139 30.0
e 243 268 1.0
e 243 41 3.0
e 243 213 37.0
e 243 271 2.0
e 243 209 2.0
e 243 29 3.0
e 243 239 5.0
e 243 117 49.0
e 243 22 26.0
e 243 205 3.0
e 243 176 13.0
e 243 46 47.0
e 243 0 35.0
e 243 52 4.0
e 243 40 47.0
e 243 241 41.0
e 243 272 9.0
e 243 238 30.0
e 243 280 23.0
e 243 131 3.0
e 243 140 8.0
e 243 73 17.0
e 243 94 38.0
e 243 291 2.0
e 243 244 48.0
e 243 92 5.0
e 243 7 2.0
e 243 110 44.0
e 243 5 38.0
e 243 69 6.0
e 243 312 19.0
e 243 264 18.0
e 243 23 42.0
e 243 222 8.0
e 243 188 42.0
e 243 109 40.0
e 243 214 48.0
e 243 210 49.0
e 243 107 7.0
e 244 194 1.0
e 245 221 1.0
e 246 170 1.0
e 247 289 1.0
e 248 103 1.0
e 249 269 1.0
e 250 150 1.0
e 251 99 1.0
e 252 188 1.0
e 253 15 1.0
e 254 46 1.0
e 255 56 1.0
e 256 314 1.0
e 257 188 1.0
e 257 198 1.0
e 258 199 10.0
e 258 247 1.0
e 258 195 3.0
e 258 246 2.0
e 258 254 3.0
e 259 309 1.0
e 260 199 1.0
e 260 254 2.0
e 261 318 2.0
e 262 154 1.0
e 263 317 22.0
e 263 243 5.0
e 263 256 6.0
e 263 211 11.0
e 263 174 28.0
e 263 195 49.0
e 263 269 25.0
e 263 122 37.0
e 263 87 13.0
e 263 249 31.0
e 263 311 17.0
e 263 307 13.0
e 263 79 1.0
e 263 94 42.0
e 263 34 46.0
e 263 62 31.0
e 263 279 13.0
e 263 37 24.0
e 263 84 46.0
e 263 142 26.0
e 263 254 29.0
e 263 235 32.0
e 263 16 3.0
e 263 248 49.0
e 263 64 16.0
e 263 180 22.0
e 263 308 48.0
e 263 131 1.0
e 263 278 16.0
e 263 294 37.0
e 263 140 15.0
e 263 240 38.0
e 263 244 42.0
e 263 69 20.0
e 263 260 20.0
e 263 192 31.0
e 263 241 1.0
e 263 284 40.0
e 263 57 40.0
e 263 124 28.0
e 263 113 15.0
e 263 159 8.0
e 263 27 4.0
e 263 194 26.0
e 263 293 41.0
e 263 181 41.0
e 263 151 37.0
e 263 96 5.0
e 264 234 1.0
e 265 26 1.0
e 266 207 1.0
e 266 92 1.0
e 267 7 2.0
e 267 64 2.0
e 267 8 1.0
e 268 3 1.0
e 269 42 2.0
e 270 307 1.0
e 271 117 1.0
e 272 89 45.0
e 273 304 2.0
e 274 297 24.0
e 274 210 8.0
e 274 7 7.0
e 274 158 1.0
e 274 38 46.0
e 274 312 41.0
e 274 211 25.0
e 274 186 13.0
e 274 154 5.0
e 274 113 5.0
e 274 177 18.0
e 274 215 49.0
e 274 189 12.0
e 274 314 33.0
e 274 193 38.0
e 274 48 46.0
e 274 318 26.0
e 274 83 44.0
e 274 145 44.0
e 274 46 26.0
e 274 74 29.0
e 274 166 18.0
e 274 284 38.0
e 274 264 14.0
e 274 49 32.0
e 274 120 24.0
e 274 190 30.0
e 274 234 33.0
e 274 187 38.0
e 274 100 27.0
e 274 127 30.0
e 274 279 2.0
e 274 146 1.0
e 274 73 14.0
e 274 5 36.0
e 274 23 18.0
e 274 195 18.0
e 274 282 7.0
e 274 91 40.0
e 274 137 48.0
e 274 140 4.0
e 274 228 23.0
e 274 22 46.0
e 274 78 20.0
e 274 32 10.0
e 274 216 14.0
e 275 20 1.0
e 276 210 1.0
e 277 66 1.0
e 278 206 1.0
e 279 24 14.0
e 279 214 20.0
e 279 278 44.0
e 279 176 46.0
e 279 165 2.0
e 279 4 23.0
e 279 174 26.0
e 279 184 15.0
e 279 285 23.0
e 279 133 23.0
e 279 53 33.0
e 279 78 2.0
e 279 193 18.0
e 279 161 44.0
e 279 149 46.0
e 279 9 11.0
e 279 145 13.0
e 279 242 45.0
e 279 307 2.0
e 279 218 37.0
e 279 46 36.0
e 279 52 44.0
e 279 183 22.0
e 279 44 9.0
e 279 127 34.0
e 279 96 2.0
e 279 189 16.0
e 279 54 34.0
e 279 56 33.0
e 279 59 7.0
e 279 272 41.0
e 279 140 1.0
e 279 139 19.0
e 279 198 40.0
e 279 131 15.0
e 279 120 13.0
e 279 63 15.0
e 279 151 40.0
e 279 293 3.0
e 279 224 43.0
e 279 23 29.0
e 279 283 43.0
e 279 15 47.0
e 279 177 19.0
e 279 97 26.0
e 279 42 34.0
e 280 225 15.0
e 280 55 27.0
e 280 21 1.0
e 280 266 20.0
e 280 143 12.0
e 280 183 10.0
e 280 288 42.0
e 280 102 40.0
e 280 58 38.0
e 280 296 27.0
e 280 309 2.0
e 280 144 5.0
e 280 263 39.0
e 280 190 7.0
e 280 69 1.0
e 280 45 43.0
e 280 160 47.0
e 280 26 4.0
e 280 36 8.0
e 280 114 38.0
e 280 54 30.0
e 280 249 42.0
e 280 165 32.0
e 280 236 2.0
e 280 278 22.0
e 280 305 38.0
e 280 260 10.0
e 280 132 3.0
e 280 270 19.0
e 280 238 1.0
e 280 161 43.0
e 280 164 29.0
e 280 240 5.0
e 280 191 1.0
e 280 101 23.0
e 280 79 1.0
e 280 11 21.0
e 280 291 46.0
e 280 83 18.0
e 280 34 48.0
e 280 298 29.0
e 280 46 14.0
e 280 63 35.0
e 280 162 28.0
e 280 129 29.0
e 280 279 13.0
e 281 136 1.0
e 281 225 11.0
e 282 303 18.0
e 282 254 5.0
e 282 221 26.0
e 282 259 17.0
e 282 237 39.0
e 282 260 21.0
e 282 222 5.0
e 282 312 21.0
e 282 186 6.0
e 282 60 2.0
e 282 91 1.0
e 282 251 3.0
e 282 261 35.0
e 282 115 36.0
e 282 148 15.0
e 282 20 25.0
e 282 11 49.0
e 282 220 6.0
e 282 191 8.0
e 282 235 13.0
e 282 41 9.0
e 282 290 11.0
e 282 164 10.0
e 282 176 35.0
e 282 96 29.0
e 282 27 25.0
e 282 85 1.0
e 282 62 36.0
e 282 206 23.0
e 282 90 26.0
e 282 200 10.0
e 282 28 35.0
e 282 188 33.0
e 282 225 42.0
e 282 226 8.0
e 282 137 36.0
e 282 150 18.0
e 282 239 7.0
e 282 97 29.0
e 282 281 45.0
e 282 313 25.0
e 282 223 39.0
e 282 81 46.0
e 282 264 22.0
e 282 92 27.0
e 283 147 1.0
e 284 229 18.0
e 284 292 6.0
e 284 281 5.0
e 284 41 14.0
e 284 237 23.0
e 284 265 12.0
e 284 242 10.0
e 284 191 23.0
e 284 238 19.0
e 284 305 24.0
e 284 123 24.0
e 284 36 1.0
e 284 134 13.0
e 284 294 1.0
e 284 221 17.0
e 284 236 15.0
e 284 135 19.0
e 284 306 16.0
e 284 232 18.0
e 285 185 1.0
e 286 193 1.0
e 287 16 4.0
e 288 5 41.0
e 288 230 12.0
e 288 163 6.0
e 288 151 2.0
e 288 47 13.0
e 288 251 21.0
e 288 14 16.0
e 288 129 38.0
e 288 120 30.0
e 288 293 17.0
e 288 35 33.0
e 288 223 44.0
e 288 289 26.0
e 288 206 4.0
e 288 235 37.0
e 288 32 46.0
e 288 45 12.0
e 288 26 2.0
e 288 272 36.0
e 288 87 43.0
e 288 103 23.0
e 288 105 22.0
e 288 259 21.0
e 288 309 17.0
e 288 21 5.0
e 288 114 4.0
e 288 189 14.0
e 288 62 3.0
e 288 59 43.0
e 288 142 33.0
e 288 296 3.0
e 288 269 26.0
e 288 80 42.0
e 288 44 28.0
e 288 308 14.0
e 288 102 16.0
e 288 107 39.0
e 288 13 39.0
e 288 176 29.0
e 288 65 29.0
e 288 202 6.0
e 288 183 2.0
e 288 15 15.0
e 288 219 18.0
e 288 252 28.0
e 289 141 1.0
e 290 217 1.0
e 291 135 1.0
e 292 32 1.0
e 293 25 1.0
e 294 239 18.0
e 295 104 2.0
e 296 129 1.0
e 297 210 1.0
e 298 236 3.0
e 299 317 5.0
e 300 106 9.0
e 300 227 21.0
e 300 263 10.0
e 300 87 19.0
e 300 135 43.0
e 300 150 27.0
e 300 122 44.0
e 300 316 40.0
e 300 103 32.0
e 300 151 10.0
e 300 228 48.0
e 300 74 10.0
e 300 136 45.0
e 300 195 44.0
e 300 256 6.0
e 300 88 5.0
e 300 36 41.0
e 300 251 48.0
e 300 260 12.0
e 300 298 35.0
e 300 8 16.0
e 300 284 18.0
e 300 107 39.0
e 300 219 35.0
e 300 180 13.0
e 300 224 5.0
e 300 152 32.0
e 300 117 42.0
e 300 200 4.0
e 300 128 20.0
e 300 50 45.0
e 300 73 7.0
e 300 147 21.0
e 300 276 44.0
e 300 261 44.0
e 300 27 37.0
e 300 57 4.0
e 300 35 45.0
e 300 264 37.0
e 300 164 41.0
e 300 168 8.0
e 300 90 18.0
e 300 84 4.0
e 300 302 13.0
e 300 108 42.0
e 300 22 25.0
e 301 90 1.0
e 302 97 1.0
e 303 117 4.0
e 303 11 1.0
e 303 285 8.0
e 303 195 9.0
e 303 153 7.0
e 303 12 3.0
e 303 190 11.0
e 303 278 4.0
e 303 167 10.0
e 304 108 1.0
e 304 188 1.0
e 305 26 2.0
e 306 137 32.0
e 307 215 1.0
e 308 22 2.0
e 309 40 41.0
e 310 153 2.0
e 311 148 1.0
e 312 251 1.0
e 313 40 34.0
e 313 138 1.0
e 314 126 1.0
e 315 99 1.0
e 316 287 2.0
e 317 315 1.0
e 317 79 2.0
e 317 256 5.0
e 318 75 1.0
e 319 202 1.0
e 319 131 1.0
